min: T; 


//Implementa a funcao objetivo 
T>=F[1];
T>=F[2];
T>=F[3];
T>=F[4];
T>=F[5];
T>=F[6];
T>=F[7];
T>=F[8];
T>=F[9];
T>=F[10];

 // Restricoes de precedencia 
I[8]>=F[10];

 // Implementa as restricoes de tempo 
F[1]-I[1]>=8;
F[2]-I[2]>=13;
F[3]-I[3]>=15;
F[4]-I[4]>=6;
F[5]-I[5]>=15;
F[6]-I[6]>=9;
F[7]-I[7]>=6;
F[8]-I[8]>=10;
F[9]-I[9]>=15;
F[10]-I[10]>=7;

 // Implementa as restricoes de nao colisao 
u[1][5] + u[5][1] >= 1;
104u[1][5]>= I[1]-F[5];
104-104u[1][5]>= F[5]-I[1];
104u[5][1]>= I[5]-F[1];
104-104u[5][1]>= F[1]-I[5];

u[1][10] + u[10][1] >= 1;
104u[1][10]>= I[1]-F[10];
104-104u[1][10]>= F[10]-I[1];
104u[10][1]>= I[10]-F[1];
104-104u[10][1]>= F[1]-I[10];

u[2][4] + u[4][2] >= 1;
104u[2][4]>= I[2]-F[4];
104-104u[2][4]>= F[4]-I[2];
104u[4][2]>= I[4]-F[2];
104-104u[4][2]>= F[2]-I[4];

u[2][6] + u[6][2] >= 1;
104u[2][6]>= I[2]-F[6];
104-104u[2][6]>= F[6]-I[2];
104u[6][2]>= I[6]-F[2];
104-104u[6][2]>= F[2]-I[6];

u[2][9] + u[9][2] >= 1;
104u[2][9]>= I[2]-F[9];
104-104u[2][9]>= F[9]-I[2];
104u[9][2]>= I[9]-F[2];
104-104u[9][2]>= F[2]-I[9];

u[3][7] + u[7][3] >= 1;
104u[3][7]>= I[3]-F[7];
104-104u[3][7]>= F[7]-I[3];
104u[7][3]>= I[7]-F[3];
104-104u[7][3]>= F[3]-I[7];

u[4][6] + u[6][4] >= 1;
104u[4][6]>= I[4]-F[6];
104-104u[4][6]>= F[6]-I[4];
104u[6][4]>= I[6]-F[4];
104-104u[6][4]>= F[4]-I[6];

u[4][9] + u[9][4] >= 1;
104u[4][9]>= I[4]-F[9];
104-104u[4][9]>= F[9]-I[4];
104u[9][4]>= I[9]-F[4];
104-104u[9][4]>= F[4]-I[9];

u[5][10] + u[10][5] >= 1;
104u[5][10]>= I[5]-F[10];
104-104u[5][10]>= F[10]-I[5];
104u[10][5]>= I[10]-F[5];
104-104u[10][5]>= F[5]-I[10];

u[6][9] + u[9][6] >= 1;
104u[6][9]>= I[6]-F[9];
104-104u[6][9]>= F[9]-I[6];
104u[9][6]>= I[9]-F[6];
104-104u[9][6]>= F[6]-I[9];


 // Implementa as restricoes de variaveis binarias
bin u[1][5];
bin u[5][1];
bin u[1][10];
bin u[10][1];
bin u[2][4];
bin u[4][2];
bin u[2][6];
bin u[6][2];
bin u[2][9];
bin u[9][2];
bin u[3][7];
bin u[7][3];
bin u[4][6];
bin u[6][4];
bin u[4][9];
bin u[9][4];
bin u[5][10];
bin u[10][5];
bin u[6][9];
bin u[9][6];
